SCIP Status        : solving was interrupted [time limit reached]
Total Time         :    3600.00
  solving          :    3600.00
  presolving       :       0.37 (included in solving)
  reading          :       0.00
  copying          :       1.07 (35 #copies) (minimal 0.00, maximal 0.06, average 0.03)
Original Problem   :
  Problem name     : bbbenchmark/g05_80.3.cut
  Variables        : 81 (80 binary, 0 integer, 0 implicit integer, 1 continuous)
  Constraints      : 1 initial, 1 maximal
  Objective        : minimize, 1 non-zeros (abs.min = 1, abs.max = 1)
Presolved Problem  :
  Problem name     : t_bbbenchmark/g05_80.3.cut
  Variables        : 1612 (80 binary, 0 integer, 1530 implicit integer, 2 continuous)
  Constraints      : 1534 initial, 6756 maximal
  Objective        : minimize, 1 non-zeros (abs.min = 1, abs.max = 1)
  Nonzeros         : 6307 constraint, 162 clique table
Presolvers         :   ExecTime  SetupTime  Calls  FixedVars   AggrVars   ChgTypes  ChgBounds   AddHoles    DelCons    AddCons   ChgSides   ChgCoefs
  boundshift       :       0.00       0.00      0          0          0          0          0          0          0          0          0          0
  convertinttobin  :       0.00       0.00      0          0          0          0          0          0          0          0          0          0
  domcol           :       0.00       0.00      1          0          0          0          0          0          0          0          0          0
  dualagg          :       0.00       0.00      0          0          0          0          0          0          0          0          0          0
  dualcomp         :       0.00       0.00      1          0          0          0          0          0          0          0          0          0
  dualinfer        :       0.00       0.00      0          0          0          0          0          0          0          0          0          0
  dualsparsify     :       0.00       0.00      1          0          0          0          0          0          0          0          0          0
  gateextraction   :       0.00       0.00      0          0          0          0          0          0          0          0          0          0
  implics          :       0.00       0.00      2          0          0          0          0          0          0          0          0          0
  inttobinary      :       0.00       0.00      0          0          0          0          0          0          0          0          0          0
  qpkktref         :       0.00       0.00      0          0          0          0          0          0          0          0          0          0
  redvub           :       0.00       0.00      0          0          0          0          0          0          0          0          0          0
  sparsify         :       0.00       0.00      1          0          0          0          0          0          0          0          0          0
  stuffing         :       0.00       0.00      0          0          0          0          0          0          0          0          0          0
  trivial          :       0.00       0.00      4          0          0          0          0          0          0          0          0          0
  tworowbnd        :       0.00       0.00      0          0          0          0          0          0          0          0          0          0
  dualfix          :       0.00       0.00      4          0          0          0          0          0          0          0          0          0
  genvbounds       :       0.00       0.00      0          0          0          0          0          0          0          0          0          0
  probing          :       0.23       0.00      1          0          0          0          0          0          0          0          0          0
  pseudoobj        :       0.00       0.00      1          0          0          0          1          0          0          0          0          0
  symmetry         :       0.00       0.00      0          0          0          0          0          0          0          0          0          0
  vbounds          :       0.00       0.00      1          0          0          0          0          0          0          0          0          0
  varbound         :       0.00       0.00      2          0          0          0          0          0          0          0          0          0
  and              :       0.01       0.01      2          0          0          0          0          0          0          0          0          0
  linear           :       0.00       0.00      2          0          0          0          0          0          0          0          0          0
  logicor          :       0.00       0.00      0          0          0          0          0          0          0          0          0          0
  bounddisjunction :       0.00       0.00      0          0          0          0          0          0          0          0          0          0
  nonlinear        :       0.12       0.00      5          0          0          0          1          0          0       1533          0          0
  benders          :       0.00       0.00      0          0          0          0          0          0          0          0          0          0
  components       :       0.00       0.00      1          0          0          0          0          0          0          0          0          0
  root node        :          -          -      -          0          -          -         27          -          -          -          -          -
Constraints        :     Number  MaxNumber  #Separate #Propagate    #EnfoLP    #EnfoRelax  #EnfoPS    #Check   #ResProp    Cutoffs    DomReds       Cuts    Applied      Conss   Children
  benderslp        :          0          0          0          0      55078          0          0       1915          0          0          0          0          0          0          0
  integral         :          0          0          0          0      55078          0          0       1915          0          0       3548          0          0       1903     107154
  varbound         :          1          1         54      86491          0          0          0         47          0          0        706          0          0          0          0
  and              :       1530       1530      65157     406896         20          0          0         47     152690          0    1793402       4281       4140          0          0
  linear           :          3+         5         54     406898         20          0          0         45        158          1      34458          0          0          0          0
  logicor          :          0+      5135          0     102888          0          0          0          0        284        349         37          0          0          0          0
  bounddisjunction :          0+       258          0      31564          0          0          0          0          0         15          0          0          0          0          0
  benders          :          0          0          0          0         20          0          0         44          0          0          0          0          0          0          0
  countsols        :          0          0          0          0         20          0          0         44          0          0          0          0          0          0          0
  components       :          0          0          0          0          0          0          0          0          0          0          0          0          0          0          0
Constraint Timings :  TotalTime  SetupTime   Separate  Propagate     EnfoLP     EnfoPS     EnfoRelax   Check    ResProp    SB-Prop
  benderslp        :       0.07       0.00       0.00       0.00       0.07       0.00       0.00       0.00       0.00       0.00
  integral         :      53.99       0.00       0.00       0.00      53.98       0.00       0.00       0.01       0.00       0.00
  varbound         :       0.02       0.00       0.00       0.02       0.00       0.00       0.00       0.00       0.00       0.00
  and              :      55.12       0.01      34.42      20.05       0.01       0.00       0.00       0.00       0.16       0.47
  linear           :       0.80       0.00       0.03       0.76       0.00       0.00       0.00       0.00       0.00       0.01
  logicor          :       5.11       0.00       0.00       5.09       0.00       0.00       0.00       0.00       0.00       0.02
  bounddisjunction :       0.28       0.00       0.00       0.27       0.00       0.00       0.00       0.00       0.00       0.01
  benders          :       0.00       0.00       0.00       0.00       0.00       0.00       0.00       0.00       0.00       0.00
  countsols        :       0.00       0.00       0.00       0.00       0.00       0.00       0.00       0.00       0.00       0.00
  components       :       0.11       0.00       0.00       0.11       0.00       0.00       0.00       0.00       0.00       0.00
Propagators        : #Propagate   #ResProp    Cutoffs    DomReds
  dualfix          :          2          0          0          0
  genvbounds       :          0          0          0          0
  nlobbt           :          0          0          0          0
  obbt             :          0          0          0          0
  probing          :          0          0          0          0
  pseudoobj        :     254704          0          0         28
  redcost          :     133696          0          0      80160
  rootredcost      :         29          0          0          0
  symmetry         :          0          0          0          0
  vbounds          :      48383          0          0          0
Propagator Timings :  TotalTime  SetupTime   Presolve  Propagate    ResProp    SB-Prop
  dualfix          :       0.00       0.00       0.00       0.00       0.00       0.00
  genvbounds       :       0.34       0.00       0.00       0.34       0.00       0.00
  nlobbt           :       0.00       0.00       0.00       0.00       0.00       0.00
  obbt             :       0.00       0.00       0.00       0.00       0.00       0.00
  probing          :       0.23       0.00       0.23       0.00       0.00       0.00
  pseudoobj        :       0.51       0.00       0.00       0.50       0.00       0.01
  redcost          :       7.65       0.00       0.00       7.65       0.00       0.00
  rootredcost      :       0.40       0.00       0.00       0.40       0.00       0.00
  symmetry         :       0.29       0.00       0.00       0.29       0.00       0.00
  vbounds          :       0.34       0.00       0.00       0.34       0.00       0.00
Conflict Analysis  :       Time      Calls    Success    DomReds  Conflicts   Literals    Reconvs ReconvLits   Dualrays   Nonzeros   LP Iters   (pool size: [10000,10000])
  propagation      :       0.01        364        282          -        327       45.0          0        0.0          -          -          -
  infeasible LP    :       0.00          0          0          -          0        0.0          0        0.0          3       80.7          0
  bound exceed. LP :      12.40       6656       4793          -      55964       63.2          1       26.0          0        0.0      27907
  strong branching :       0.00          0          0          -          0        0.0          0        0.0          -          -          0
  pseudo solution  :       0.00          0          0          -          0        0.0          0        0.0          -          -          -
  applied globally :       0.38          -          -          0      16108       67.8          -          -          3          -          -
  applied locally  :          -          -          -          0          0        0.0          -          -          0          -          -
Separators         :   ExecTime  SetupTime      Calls  RootCalls    Cutoffs    DomReds  FoundCuts ViaPoolAdd  DirectAdd    Applied ViaPoolApp  DirectApp      Conss
  cut pool         :       4.58          -      21259         76          -          -      34657     865699          -          -          -          -          -    (maximal pool size:       1845)
  aggregation      :       8.86       0.00       4262         54          0          0        189        311          0         32         32          0          0
  > cmir           :          -          -          -          -          -          -          -        311          0         32         32          0          -
  > flowcover      :          -          -          -          -          -          -          -          0          0          0          0          0          -
  > knapsackcover  :          -          -          -          -          -          -          -          0          0          0          0          0          -
  cgmip            :       0.00       0.00          0          0          0          0          0          0          0          0          0          0          0
  clique           :       0.00       0.00         54         54          0          0          0          0          0          0          0          0          0
  closecuts        :       0.00       0.00          0          0          0          0          0          0          0          0          0          0          0
  convexproj       :       0.00       0.00          0          0          0          0          0          0          0          0          0          0          0
  disjunctive      :       0.00       0.00          0          0          0          0          0          0          0          0          0          0          0
  eccuts           :       0.00       0.00          0          0          0          0          0          0          0          0          0          0          0
  gauge            :       0.00       0.00          0          0          0          0          0          0          0          0          0          0          0
  gomory           :       0.00       0.00          0          0          0          0          0          0          0          0          0          0          0
  > gomorymi       :          -          -          -          -          -          -          -          0          0          0          0          0          -
  > strongcg       :          -          -          -          -          -          -          -          0          0          0          0          0          -
  impliedbounds    :       0.23       0.00       4262         54          0          0          0          0          0          0          0          0          0
  interlattice     :       0.13       0.00         30         30          0          0         30          0         30         30          0         30          0
  interminor       :       0.00       0.00          0          0          0          0          0          0          0          0          0          0          0
  intersub         :       0.00       0.00          0          0          0          0          0          0          0          0          0          0          0
  intobj           :       0.00       0.00          0          0          0          0          0          0          0          0          0          0          0
  mcf              :       0.00       0.00          1          1          0          0          0          0          0          0          0          0          0
  minor            :       0.01       0.00          0          0          0          0          0          0          0          0          0          0          0
  mixing           :       0.01       0.00       4267         54          0          0          0          0          0          0          0          0          0
  oddcycle         :       0.00       0.00          0          0          0          0          0          0          0          0          0          0          0
  rapidlearning    :       0.00       0.00          0          0          0          0          0          0          0          0          0          0          0
  rlt              :       0.00       0.00         10         10          0          0          0          0          0          0          0          0          0
  zerohalf         :      38.11       0.00       3842         20          0          0      34468     865388          0     113512     113512          0          0
Cutselectors       :   ExecTime  SetupTime      Calls  RootCalls   Selected     Forced   Filtered  RootSelec   RootForc   RootFilt 
  hybrid           :       0.89       0.00      13528         53     117714          0     752296        201          0          8
Pricers            :   ExecTime  SetupTime      Calls       Vars
  problem variables:       0.00          -          0          0
Branching Rules    :   ExecTime  SetupTime   BranchLP  BranchExt   BranchPS    Cutoffs    DomReds       Cuts      Conss   Children
  allfullstrong    :       0.00       0.00          0          0          0          0          0          0          0          0
  cloud            :       0.00       0.00          0          0          0          0          0          0          0          0
  distribution     :       0.00       0.00          0          0          0          0          0          0          0          0
  fullstrong       :       0.00       0.00          0          0          0          0          0          0          0          0
  inference        :       0.00       0.00          0          0          0          0          0          0          0          0
  leastinf         :       0.00       0.00          0          0          0          0          0          0          0          0
  lookahead        :       0.00       0.00          0          0          0          0          0          0          0          0
  mostinf          :       0.00       0.00          0          0          0          0          0          0          0          0
  multaggr         :       0.00       0.00          0          0          0          0          0          0          0          0
  nodereopt        :       0.00       0.00          0          0          0          0          0          0          0          0
  pscost           :       0.00       0.00          0          0          0          0          0          0          0          0
  random           :       0.00       0.00          0          0          0          0          0          0          0          0
  relpscost        :      53.81       0.00      55058          0          0          0       3548          0       1905     107154
  vanillafullstrong:       0.00       0.00          0          0          0          0          0          0          0          0
Primal Heuristics  :   ExecTime  SetupTime      Calls      Found       Best
  LP solutions     :       0.02          -          -         20         20
  relax solutions  :       0.00          -          -          0          0
  pseudo solutions :       0.00          -          -          0          0
  strong branching :       0.02          -          -          0          0
  actconsdiving    :       0.00       0.00          0          0          0
  adaptivediving   :       3.39       0.00         38          0          0
  alns             :       3.82       0.00         21          6          5
  bound            :       0.00       0.00          0          0          0
  clique           :       0.02       0.00          1          0          0
  coefdiving       :       0.00       0.00          0          0          0
  completesol      :       0.00       0.00          0          0          0
  conflictdiving   :      30.35       0.00        331          0          0
  crossover        :       0.64       0.00          8          1          1
  dins             :       0.00       0.00          0          0          0
  distributiondivin:      48.73       0.00        331          0          0
  dps              :       0.00       0.00          0          0          0
  dualval          :       0.00       0.00          0          0          0
  farkasdiving     :       0.01       0.00          0          0          0
  feaspump         :       0.00       0.00          0          0          0
  fixandinfer      :       0.00       0.00          0          0          0
  fracdiving       :      32.52       0.00        331          0          0
  gins             :       0.09       0.00          0          0          0
  guideddiving     :      28.24       0.00        331          2          2
  indicator        :       0.04       0.00          0          0          0
  indicatordiving  :       0.00       0.00          0          0          0
  intdiving        :       0.00       0.00          0          0          0
  intshifting      :       0.30       0.00         49          0          0
  linesearchdiving :      25.98       0.00        331          0          0
  localbranching   :       0.00       0.00          0          0          0
  locks            :       0.00       0.00          1          0          0
  lpface           :       0.09       0.00          0          0          0
  mpec             :     147.23       0.00         11          0          0
  multistart       :       0.00       0.00          0          0          0
  mutation         :       0.00       0.00          0          0          0
  nlpdiving        :       8.40       0.00         10          0          0
  objpscostdiving  :      63.05       0.00         80         17          0
  octane           :       0.00       0.00          0          0          0
  ofins            :       0.10       0.00          0          0          0
  oneopt           :       0.13       0.00         39          0          0
  padm             :       0.00       0.00          0          0          0
  proximity        :       0.00       0.00          0          0          0
  pscostdiving     :      35.59       0.00        331          0          0
  randrounding     :       0.29       0.00       1867          0          0
  rens             :       0.00       0.00          0          0          0
  reoptsols        :       0.00       0.00          0          0          0
  repair           :       0.00       0.00          0          0          0
  rins             :       6.54       0.00          5          0          0
  rootsoldiving    :      46.07       0.00         52          3          0
  rounding         :       0.95       0.00       3603          0          0
  shiftandpropagate:       0.00       0.00          0          0          0
  shifting         :      58.61       0.00      13614          9          9
  simplerounding   :       0.11       0.00          0          0          0
  subnlp           :      99.98       0.00          0          0          0
  trivial          :       0.01       0.00          2          2          2
  trivialnegation  :       0.00       0.00          0          0          0
  trustregion      :       0.00       0.00          0          0          0
  trysol           :       0.14       0.00          0          0          0
  twoopt           :       0.00       0.00          0          0          0
  undercover       :       0.81       0.00          1          1          1
  vbounds          :       0.00       0.00          0          0          0
  veclendiving     :      25.46       0.00        330          0          0
  zeroobj          :       0.00       0.00          0          0          0
  zirounding       :       0.40       0.00       1000          0          0
  other solutions  :          -          -          -          0          -
Diving (single)    :      Calls      Nodes   LP Iters Backtracks  Conflicts   MinDepth   MaxDepth   AvgDepth  RoundSols  NLeafSols  MinSolDpt  MaxSolDpt  AvgSolDpt
  actconsdiving    :          0          -          -          -          -          -          -          -          -          -          -          -          -
  coefdiving       :          0          -          -          -          -          -          -          -          -          -          -          -          -
  conflictdiving   :        331      10828     271981        371       9692         35         68       49.6          0          -          -          -          -
  distributiondivin:        331       7723     355010        370       4403         33         55       40.1          0          -          -          -          -
  farkasdiving     :          0          -          -          -          -          -          -          -          -          -          -          -          -
  fracdiving       :        331      38729     298538        275       2782         39        471      134.1          0          -          -          -          -
  guideddiving     :        331      33831     262122        170       2763         47        421      119.7          0          2         88         94       91.0
  indicatordiving  :          0          -          -          -          -          -          -          -          -          -          -          -          -
  linesearchdiving :        331      10248     264416        375       8456         33         74       47.8          0          -          -          -          -
  pscostdiving     :        331      10162     353710        347       7844         37         59       47.3          0          -          -          -          -
  veclendiving     :        330       9131     237840        338      10703         36         67       45.0          0          -          -          -          -
Diving (adaptive)  :      Calls      Nodes   LP Iters Backtracks  Conflicts   MinDepth   MaxDepth   AvgDepth  RoundSols  NLeafSols  MinSolDpt  MaxSolDpt  AvgSolDpt
  actconsdiving    :          8        207       7830          6         71         39         46       42.4          0          -          -          -          -
  coefdiving       :         16        492      12718         17        564         37         58       45.6          0          -          -          -          -
  conflictdiving   :          0          -          -          -          -          -          -          -          -          -          -          -          -
  distributiondivin:          0          -          -          -          -          -          -          -          -          -          -          -          -
  farkasdiving     :          0          -          -          -          -          -          -          -          -          -          -          -          -
  fracdiving       :          2        504       2845          1          2        131        404      267.5          0          -          -          -          -
  guideddiving     :          3        382       1961          1         18         96        229      146.0          0          -          -          -          -
  indicatordiving  :          0          -          -          -          -          -          -          -          -          -          -          -          -
  linesearchdiving :          3         92       2664          3        115         40         56       46.3          0          -          -          -          -
  pscostdiving     :          0          -          -          -          -          -          -          -          -          -          -          -          -
  veclendiving     :          6        167       3847          6        228         39         58       46.0          0          -          -          -          -
Neighborhoods      :      Calls  SetupTime  SolveTime SolveNodes       Sols       Best       Exp3  EpsGreedy        UCB TgtFixRate  Opt  Inf Node Stal  Sol  Usr Othr Actv
  rens             :          2       0.12       0.02          0          0          0    0.00000   -1.00000    0.54973      0.550    0    2    0    0    0    0    0    1
  rins             :          1       0.01       0.00          0          0          0    0.00000   -1.00000    0.57033      0.700    0    1    0    0    0    0    0    1
  mutation         :          2       0.09       0.04          3          0          0    0.00000   -1.00000    0.54646      0.550    0    2    0    0    0    0    0    1
  localbranching   :          3       0.13       0.52        207          1          1    0.00000   -1.00000    0.50028      0.662    1    1    0    1    0    0    0    1
  crossover        :          2       0.13       0.04          5          0          0    0.00000   -1.00000    0.54405      0.550    0    2    0    0    0    0    0    1
  proximity        :          5       0.31       0.87        248          3          2    0.00000   -1.00000    0.54853      0.684    2    1    0    2    0    0    0    1
  zeroobjective    :          5       0.26       1.15        441          2          2    0.00000   -1.00000    0.46959      0.641    2    1    0    2    0    0    0    1
  dins             :          1       0.01       0.00          1          0          0    0.00000   -1.00000    0.56933      0.700    0    1    0    0    0    0    0    1
  trustregion      :          0       0.00       0.00          0          0          0    0.00000   -1.00000    1.00000      0.900    0    0    0    0    0    0    0    0
Expressions        :   #IntEval  IntEvalTi   #RevProp  RevPropTi    DomReds    Cutoffs  #Estimate  EstimTime  Branching  #Simplify SimplifyTi Simplified
  pow              :          0       0.00          0       0.00          0          0          0       0.00          0          0       0.00          0
  prod             :       6320       0.01          0       0.00          0          0          0       0.00          0       4690       0.00          0
  sum              :          8       0.01          2       0.00          0          0          0       0.00          0          3       0.03          2
  var              :       5485       0.00          0       0.00          0          0          0       0.00          0      11154       0.00          0
  varidx           :          0       0.00          0       0.00          0          0          0       0.00          0          0       0.00          0
LP                 :       Time      Calls Iterations  Iter/call   Iter/sec  Time-0-It Calls-0-It    ItLimit
  primal LP        :     129.57       9186          0       0.00       0.00     129.50       9186
  dual LP          :    2522.52     116664   11702632     109.75    4639.26       4.46      10034
  lex dual LP      :       0.00          0          0       0.00          -
  barrier LP       :       0.00          0          0       0.00          -       0.00          0
  resolve instable :       0.00          0          0       0.00          -
  diving/probing LP:     294.18      12137    2675514     220.44    9094.82
  strong branching :      29.57       2819     276548      98.10    9352.32          -          -        112
    (at root node) :          -         19       2914     153.37          -
  conflict analysis:       4.55       2859      27907       9.76    6133.41
NLP relaxation     :
  solve time       :       8.40 (10 calls)
  convexity        :  nonconvex (4 linear rows, 0 convex ineq., 0 nonconvex ineq., 1530 nonlinear eq. or two-sided ineq.)
NLP Solvers        :  #Problems  ProblemTi    #Solves  SolveTime      #Iter  Time/Iter      #Okay #TimeLimit #IterLimit #LObjLimit #Interrupt  #NumError #EvalError  #OutOfMem #LicenseEr #OtherTerm   #GlobOpt    #LocOpt  #Feasible #LocInfeas #GlobInfea #Unbounded   #Unknown
  ipopt            :         12       3.85         29     156.01       1976       0.08         29          0          0          0          0          0          0          0          0          0          0          0          0         19          0          0         10
B&B Tree           :
  number of runs   :          1
  nodes            :      91641 (53577 internal, 38064 leaves)
  feasible leaves  :         20
  infeas. leaves   :         20
  objective leaves :      38023
  nodes (total)    :      91641 (53577 internal, 38064 leaves)
  nodes left       :      15510
  max depth        :         53
  max depth (total):         53
  backtracks       :      19372 (21.1%)
  early backtracks :          0 (0.0%)
  nodes exc. ref.  :          0 (0.0%)
  delayed cutoffs  :          0
  repropagations   :         32 (87 domain reductions, 0 cutoffs)
  avg switch length:       4.47
  switching time   :     147.16
Estim. Tree Size   :     183290
Estimation Tree    : 107155 nodes (91645 visited, 53577 internal, 38068 leaves, 15510 open), weight: 0.0000 completed 0.1132
Estimations        :      estim      value      trend resolution     smooth
  wbe              : 9154901278          -          -          -          -
  tree-profile     :         -1          -          -          -          -
  gap              :     638116    0.78470    0.00005         64     637645
  tree-weight      :     183290    0.00001    0.00000         64     182938
  leaf-frequency   :     183290    0.41538   -0.00001         64     182938
  ssg              :    1869702    0.82131   -0.00006         64    1854030
  open-nodes       :     183290 15510.00000   23.80979         64     182938
Root Node          :
  First LP value   : -1.00000000000000e+00
  First LP Iters   :       1020 (14571.43 Iter/sec)
  First LP Time    :       0.07
  Final Dual Bound : -9.28045886075952e-01
  Final Root Iters :       1939
  Root LP Estimate : -5.07834256674052e-01
Solution           :
  Solutions found  :         61 (40 improvements)
  First Solution   : +1.00000000000000e+05   (in run 1, after 0 nodes, 0.04 seconds, depth 0, found by <trivial>)
  Gap First Sol.   :   infinite
  Gap Last Sol.    :      39.30 %
  Primal Bound     : -5.77848101265822e-01   (in run 1, after 12854 nodes, 489.35 seconds, depth 36, found by <crossover>)
  Dual Bound       : -7.36392405063293e-01
  Gap              :      27.44 %
Integrals          :      Total       Avg%
  primal-dual      :   92632.61      25.73
  primal-ref       :          -          - (not evaluated)
  dual-ref         :          -          - (not evaluated)
